12 16 6 10
17 17 17 15 16 2 4 18 11 4 2 6 12 5 19 14 
2.8 0.62 6.7 6.87 1.82 0.16 5.14 3.95 4.85 6.14 1.82 0.55 7.57 0.12 1.64 1.84 
3.89 5.7 5.42 6.56 3.27 1.74 0.62 3.41 6.43 4.89 5.04 0.9 7.97 7.25 4.74 5.92 
5.24 2.92 7.71 6.54 7.41 1.05 6.49 6.28 3.15 3.77 5.46 1.63 0.53 0.8 6.43 3.95 
7.74 4.06 2.72 2.54 2.67 4.84 5.04 6.04 1.6 6.3 6.31 2.3 1.56 6.37 4.86 1.57 
2.66 5.67 1.88 7.19 0.12 1.47 4.86 2.33 4.56 1.51 6.91 5.37 3.72 4.03 6.4 6.67 
0.21 0.77 8 3.88 4.6 5.42 4.28 3.82 5.23 4.71 4.32 4.42 2.58 7.9 4.82 5.39 
4 4 4 4 4 4 4 4 4 4 4 4 4 4 4 4 
1.87 0.06 5.38 2.39 8 5.78 1 5.38 0.25 5.33 4.87 2.87 4.74 0.85 7.5 2.29 
4.22 0.67 7.09 2.17 6.34 7.1 0.75 6.84 0.29 6.35 1.48 7.54 7.45 7.75 6.76 4.33 
0.14 6.33 7.78 0.83 6.49 5.22 1.65 3.32 6.41 4.05 0.51 6.61 5.63 2.45 2.22 0.96 
3.84 1.27 0.55 4.76 4.67 4.68 6.82 5.49 2.23 6.35 7.69 0.87 3.54 1.8 0.64 1.97 
7.53 0.76 0.86 1.18 3.86 7.37 0.75 5.88 6.68 3.54 5.45 4.66 5.22 1.79 0.54 4.16 
1 1 1 1 1 1 1 1 1 1 1 1 1 1 1 1 
1 1 1 1 1 1 1 1 1 1 1 1 1 1 1 1 
1 1 1 1 1 1 1 1 1 1 1 1 1 1 1 1 
1 1 1 1 1 1 1 1 1 1 1 1 1 1 1 1 
1 1 1 1 1 1 1 1 1 1 1 1 1 1 1 1 
1 1 1 1 1 1 1 1 1 1 1 1 1 1 1 1 
1 1 1 1 1 1 1 1 1 1 1 1 1 1 1 1 
1 1 1 1 1 1 1 1 1 1 1 1 1 1 1 1 
1 1 1 1 1 1 1 1 1 1 1 1 1 1 1 1 
1 1 1 1 1 1 1 1 1 1 1 1 1 1 1 1 
1 1 1 1 1 1 1 1 1 1 1 1 1 1 1 1 
1 1 1 1 1 1 1 1 1 1 1 1 1 1 1 1 
0.01 0.01 0.01 0.01 0.01 0.01 0.01 0.01 0.01 0.01 0.01 0.01 0.01 0.01 0.01 0.01 
0.02 0.02 0.02 0.02 0.02 0.02 0.02 0.02 0.02 0.02 0.02 0.02 0.02 0.02 0.02 0.02 
0.03 0.03 0.03 0.03 0.03 0.03 0.03 0.03 0.03 0.03 0.03 0.03 0.03 0.03 0.03 0.03 
0.04 0.04 0.04 0.04 0.04 0.04 0.04 0.04 0.04 0.04 0.04 0.04 0.04 0.04 0.04 0.04 
0.05 0.05 0.05 0.05 0.05 0.05 0.05 0.05 0.05 0.05 0.05 0.05 0.05 0.05 0.05 0.05 
0.06 0.06 0.06 0.06 0.06 0.06 0.06 0.06 0.06 0.06 0.06 0.06 0.06 0.06 0.06 0.06 
0.07 0.07 0.07 0.07 0.07 0.07 0.07 0.07 0.07 0.07 0.07 0.07 0.07 0.07 0.07 0.07 
0.2 0.2 0.2 0.2 0.2 0.2 0.2 0.2 0.2 0.2 0.2 0.2 0.2 0.2 0.2 0.2 
0.4 0.4 0.4 0.4 0.4 0.4 0.4 0.4 0.4 0.4 0.4 0.4 0.4 0.4 0.4 0.4 
0.6 0.6 0.6 0.6 0.6 0.6 0.6 0.6 0.6 0.6 0.6 0.6 0.6 0.6 0.6 0.6 
0.8 0.8 0.8 0.8 0.8 0.8 0.8 0.8 0.8 0.8 0.8 0.8 0.8 0.8 0.8 0.8 
1 1 1 1 1 1 1 1 1 1 1 1 1 1 1 1 
